set VV := 0 1 2 3 4 5 6 7 8 9 ;
set VS := 0 1 2 3 4 5 6 7 8 9 10 11 12 13 14 15 16 17 18 19 20 21 22 23 24 ;
param cv := 
0 17
1 15
2 23
3 14
4 12
5 22
6 19
7 23
8 12
9 24
;
param cs := 
0 34
1 30
2 29
3 31
4 36
5 28
6 24
7 39
8 26
9 22
10 35
11 23
12 38
13 21
14 40
15 35
16 25
17 31
18 34
19 35
20 37
21 28
22 32
23 36
24 34
;
param bv:	 0 1 2 3 4 5 6 7 8 9 := 
		0 0 0 0 0 16 0 13 0 0 0 
		1 0 0 22 12 0 11 0 0 0 0 
		2 0 0 0 0 0 0 0 23 16 0 
		3 0 0 0 0 0 0 0 0 0 0 
		4 0 0 0 0 0 0 0 0 0 0 
		5 0 0 0 0 0 0 0 0 0 0 
		6 0 0 0 0 0 0 0 0 20 23 
		7 0 0 0 0 0 0 0 0 0 0 
		8 0 0 0 0 0 0 0 0 0 0 
		9 0 0 0 0 0 0 0 0 0 0 
;
param bs:	 0 1 2 3 4 5 6 7 8 9 10 11 12 13 14 15 16 17 18 19 20 21 22 23 24 := 
		0 0 0 25 0 0 0 0 0 0 0 0 0 0 0 37 0 0 0 0 0 0 0 0 0 38 
		1 0 0 0 0 27 0 0 0 0 0 0 0 0 0 0 0 26 0 0 0 0 0 0 0 0 
		2 25 0 0 30 0 0 0 0 33 0 0 0 0 0 0 0 0 22 0 0 0 0 0 36 0 
		3 0 0 30 0 0 0 0 0 0 0 37 0 0 0 0 0 0 0 0 20 0 0 0 0 0 
		4 0 27 0 0 0 0 0 0 24 0 0 0 0 0 0 29 0 24 0 0 0 0 0 0 0 
		5 0 0 0 0 0 0 0 0 34 0 0 0 0 0 0 0 0 37 0 0 0 0 0 0 0 
		6 0 0 0 0 0 0 0 0 0 0 0 0 0 0 0 0 0 0 0 0 27 0 0 24 0 
		7 0 0 0 0 0 0 0 0 0 0 0 0 0 0 0 0 0 0 0 39 0 0 0 0 0 
		8 0 0 33 0 24 34 0 0 0 0 0 0 0 30 0 0 0 0 0 0 0 0 0 0 0 
		9 0 0 0 0 0 0 0 0 0 0 0 0 0 0 0 0 0 0 0 0 27 0 26 0 0 
		10 0 0 0 37 0 0 0 0 0 0 0 0 0 0 0 0 0 0 0 0 0 0 25 0 0 
		11 0 0 0 0 0 0 0 0 0 0 0 0 0 0 0 0 22 0 22 0 0 0 0 0 25 
		12 0 0 0 0 0 0 0 0 0 0 0 0 0 0 0 0 0 0 0 0 0 0 0 0 37 
		13 0 0 0 0 0 0 0 0 30 0 0 0 0 0 0 39 0 0 0 0 0 0 0 0 0 
		14 37 0 0 0 0 0 0 0 0 0 0 0 0 0 0 0 0 0 0 0 0 0 0 0 0 
		15 0 0 0 0 29 0 0 0 0 0 0 0 0 39 0 0 0 0 0 0 0 0 0 0 0 
		16 0 26 0 0 0 0 0 0 0 0 0 22 0 0 0 0 0 27 0 0 0 0 0 23 38 
		17 0 0 22 0 24 37 0 0 0 0 0 0 0 0 0 0 27 0 0 0 0 0 0 0 0 
		18 0 0 0 0 0 0 0 0 0 0 0 22 0 0 0 0 0 0 0 0 0 0 0 0 33 
		19 0 0 0 20 0 0 0 39 0 0 0 0 0 0 0 0 0 0 0 0 0 20 28 0 0 
		20 0 0 0 0 0 0 27 0 0 27 0 0 0 0 0 0 0 0 0 0 0 36 24 0 0 
		21 0 0 0 0 0 0 0 0 0 0 0 0 0 0 0 0 0 0 0 20 36 0 0 0 32 
		22 0 0 0 0 0 0 0 0 0 26 25 0 0 0 0 0 0 0 0 28 24 0 0 0 0 
		23 0 0 36 0 0 0 24 0 0 0 0 0 0 0 0 0 23 0 0 0 0 0 0 0 0 
		24 38 0 0 0 0 0 0 0 0 0 0 25 37 0 0 0 38 0 33 0 0 32 0 0 0 
;
